************************************************************************
file with basedata            : j60_26.bas
initial value random generator: 1742301220
************************************************************************
projects                      :  1
jobs (incl. supersource/sink ):  62
horizon                       :  319
RESOURCES
  - renewable                 :  4   R
  - nonrenewable              :  0   N
  - doubly constrained        :  0   D
************************************************************************
PROJECT INFORMATION:
pronr.  #jobs rel.date duedate tardcost  MPM-Time
    1     60      0       73       41       73
************************************************************************
PRECEDENCE RELATIONS:
jobnr.    #modes  #successors   successors
   1        1          3           2   3   4
   2        1          1          25
   3        1          2          34  41
   4        1          3           5   6   7
   5        1          3          17  21  32
   6        1          3           8  10  20
   7        1          2           9  41
   8        1          3          11  14  23
   9        1          3          12  13  22
  10        1          2          18  46
  11        1          2          15  39
  12        1          1          49
  13        1          3          16  26  30
  14        1          3          24  28  40
  15        1          2          19  54
  16        1          1          55
  17        1          2          35  46
  18        1          1          52
  19        1          1          44
  20        1          2          27  33
  21        1          1          36
  22        1          1          29
  23        1          1          42
  24        1          1          34
  25        1          1          51
  26        1          2          36  48
  27        1          1          53
  28        1          2          31  43
  29        1          1          42
  30        1          1          38
  31        1          1          47
  32        1          1          34
  33        1          2          37  48
  34        1          1          58
  35        1          1          58
  36        1          1          56
  37        1          2          40  60
  38        1          2          44  56
  39        1          1          46
  40        1          1          59
  41        1          1          42
  42        1          2          50  54
  43        1          1          45
  44        1          1          45
  45        1          1          51
  46        1          1          50
  47        1          3          52  55  58
  48        1          1          50
  49        1          1          59
  50        1          1          61
  51        1          1          61
  52        1          2          56  60
  53        1          1          57
  54        1          1          55
  55        1          1          57
  56        1          1          57
  57        1          1          61
  58        1          1          59
  59        1          1          62
  60        1          1          62
  61        1          1          62
  62        1          0        
************************************************************************
REQUESTS/DURATIONS:
jobnr. mode duration  R 1  R 2  R 3  R 4
------------------------------------------------------------------------
  1      1     0       0    0    0    0
  2      1     5      10    5    6    8
  3      1    10       0    7    0    5
  4      1     8       4    0    6    9
  5      1     4       9    0    5    6
  6      1     1       7    1    5    4
  7      1     3       1    0    8    5
  8      1    10       4    5    9    2
  9      1     7       0    8    2    9
 10      1     9       3    7    7    8
 11      1     1       0    7   10    0
 12      1     8       5    2    9    0
 13      1     2       5    1    0    6
 14      1     5       0   10    0    3
 15      1     2       0    2    5    0
 16      1     7       0    6    9    0
 17      1     5       6    0    6    3
 18      1     8       6    8    0    1
 19      1     4      10   10   10    5
 20      1     4       8    2    5    0
 21      1     6       5    4    6    7
 22      1     5       8    4    0    2
 23      1     5      10    2    6    4
 24      1     1       0    6    2    9
 25      1     3       2    8    0    8
 26      1     5       5    4    9    1
 27      1     3       4    2    4    0
 28      1     8       1    1    3    9
 29      1     1       2    1    1    3
 30      1     7       3    0    6    7
 31      1     9       9   10    0    0
 32      1     5       6    0   10    6
 33      1     8      10    1   10    7
 34      1     2       9    0    6    0
 35      1     1       0    0    1    8
 36      1     5       9    9    0    0
 37      1    10       4    0    0    0
 38      1     5       0   10    0    2
 39      1     9       8    7    5   10
 40      1     2       4    0    0    4
 41      1     1       5    3    4    2
 42      1     9       3    3    2   10
 43      1    10       1    6    0    7
 44      1     1       7    0    0    8
 45      1     7       0    0    0    4
 46      1     3       1    2    8    0
 47      1     8       9   10    9    2
 48      1     5       5    5    0    0
 49      1    10       6   10    0    0
 50      1     2       4    3    7    3
 51      1     4       7    0    0    0
 52      1     6      10    4    8    0
 53      1     6       3    3   10    4
 54      1     6      10    4    4    0
 55      1     5       6    7    1    4
 56      1     2      10    1    6   10
 57      1     9       4    4    9    8
 58      1     5       0    4    8   10
 59      1     9      10    4    2    3
 60      1     1       0    9    7   10
 61      1     7       7    0   10    7
 62      1     0       0    0    0    0
************************************************************************
RESOURCEAVAILABILITIES:
  R 1  R 2  R 3  R 4
   37   32   40   31
************************************************************************
